35702 41387 
34310 41546 
33519 41596 
35276 41421 
35588 41389 
32981 41614 
33277 41607 
34933 41510 
36325 41351 
36979 41209 
38058 40850 
36446 41319 
37100 41177 
35540 41405 
37652 41042 
36744 41221 
38660 40563 
37417 41054 
